c CNF file corresponding to a (partial) station packing problem.
p cnf 6653 138
1 2 3 4 5 6 7 8 9 10 11 12 13 14 0
-1 -2 0
-1 -3 0
-1 -4 0
-1 -5 0
-1 -6 0
-1 -7 0
-1 -8 0
-1 -9 0
-1 -10 0
-1 -11 0
-1 -12 0
-1 -13 0
-1 -14 0
-2 -3 0
-2 -4 0
-2 -5 0
-2 -6 0
-2 -7 0
-2 -8 0
-2 -9 0
-2 -10 0
-2 -11 0
-2 -12 0
-2 -13 0
-2 -14 0
-3 -4 0
-3 -5 0
-3 -6 0
-3 -7 0
-3 -8 0
-3 -9 0
-3 -10 0
-3 -11 0
-3 -12 0
-3 -13 0
-3 -14 0
-4 -5 0
-4 -6 0
-4 -7 0
-4 -8 0
-4 -9 0
-4 -10 0
-4 -11 0
-4 -12 0
-4 -13 0
-4 -14 0
-5 -6 0
-5 -7 0
-5 -8 0
-5 -9 0
-5 -10 0
-5 -11 0
-5 -12 0
-5 -13 0
-5 -14 0
-6 -7 0
-6 -8 0
-6 -9 0
-6 -10 0
-6 -11 0
-6 -12 0
-6 -13 0
-6 -14 0
-7 -8 0
-7 -9 0
-7 -10 0
-7 -11 0
-7 -12 0
-7 -13 0
-7 -14 0
-8 -9 0
-8 -10 0
-8 -11 0
-8 -12 0
-8 -13 0
-8 -14 0
-9 -10 0
-9 -11 0
-9 -12 0
-9 -13 0
-9 -14 0
-10 -11 0
-10 -12 0
-10 -13 0
-10 -14 0
-11 -12 0
-11 -13 0
-11 -14 0
-12 -13 0
-12 -14 0
-13 -14 0
-9 -6650 0
-6646 -5 0
-8 -6649 0
-6648 -7 0
-10 -6651 0
-4 -6645 0
-6652 -11 0
-6647 -6 0
-6653 -14 0
6645 6646 6647 6648 6649 6650 6651 6652 6653 0
-6645 -6646 0
-6645 -6647 0
-6645 -6648 0
-6645 -6649 0
-6645 -6650 0
-6645 -6651 0
-6645 -6652 0
-6645 -6653 0
-6646 -6647 0
-6646 -6648 0
-6646 -6649 0
-6646 -6650 0
-6646 -6651 0
-6646 -6652 0
-6646 -6653 0
-6647 -6648 0
-6647 -6649 0
-6647 -6650 0
-6647 -6651 0
-6647 -6652 0
-6647 -6653 0
-6648 -6649 0
-6648 -6650 0
-6648 -6651 0
-6648 -6652 0
-6648 -6653 0
-6649 -6650 0
-6649 -6651 0
-6649 -6652 0
-6649 -6653 0
-6650 -6651 0
-6650 -6652 0
-6650 -6653 0
-6651 -6652 0
-6651 -6653 0
-6652 -6653 0
